 4  8  1  0  5  9  6  3  0 
 3  6  2  0  8  4  0  7  5 
 9  5  7  3  2  0  8  0  1 
 8  1  4  9  7  5  2  0  3 
 5  7  9  6  3  0  1  8  0 
 6  2  3  0  1  8  5  9  7 
 1  4  8  0  9  7  3  2  6 
 7  0  5  2  6  3  4  1  0 
 2  3  6  8  4  1  0  5  0 